NAME          SET_PARTITION
ROWS
 N  COST
 E  ELEM1
 E  ELEM2
 E  ELEM3
 E  ELEM4
 E  ELEM5
 E  ELEM6
 E  ELEM7
 E  ELEM8
 E  ELEM9
 E  ELEM10
 E  ELEM11
 E  ELEM12
 E  ELEM13
 E  ELEM14
 E  ELEM15
 E  ELEM16
 E  ELEM17
 E  ELEM18
 E  ELEM19
 E  ELEM20
 E  ELEM21
 E  ELEM22
 E  ELEM23
 E  ELEM24
 E  ELEM25
 E  ELEM26
 E  ELEM27
 E  ELEM28
 E  ELEM29
 E  ELEM30
COLUMNS
    X1       COST      89         ELEM2     1          ELEM11    1          
    X1       ELEM20    1          ELEM24    1          
    X1       ELEM28    1          ELEM29    1          
    X2       COST      62         ELEM3     1          ELEM11    1          
    X2       ELEM12    1          ELEM15    1          
    X2       ELEM17    1          ELEM21    1          
    X2       ELEM24    1          ELEM30    1          
    X3       COST      8          ELEM1     1          ELEM3     1          
    X3       ELEM4     1          ELEM7     1          
    X3       ELEM8     1          ELEM9     1          
    X3       ELEM13    1          ELEM16    1          
    X3       ELEM17    1          ELEM22    1          
    X3       ELEM25    1          ELEM26    1          
    X4       COST      51         ELEM2     1          ELEM4     1          
    X4       ELEM10    1          ELEM13    1          
    X4       ELEM14    1          ELEM21    1          
    X4       ELEM25    1          
    X5       COST      16         ELEM1     1          ELEM6     1          
    X5       ELEM9     1          ELEM16    1          
    X5       ELEM17    1          ELEM19    1          
    X5       ELEM23    1          ELEM27    1          
    X5       ELEM29    1          
    X6       COST      68         ELEM3     1          ELEM5     1          
    X6       ELEM8     1          ELEM20    1          
    X6       ELEM24    1          ELEM28    1          
    X6       ELEM30    1          
    X7       COST      99         ELEM7     1          ELEM11    1          
    X7       ELEM12    1          ELEM15    1          
    X7       ELEM18    1          ELEM22    1          
    X7       ELEM26    1          
    X8       COST      76         ELEM1     1          ELEM4     1          
    X8       ELEM6     1          ELEM9     1          
    X8       ELEM10    1          ELEM13    1          
    X8       ELEM14    1          ELEM18    1          
    X8       ELEM22    1          ELEM25    1          
    X8       ELEM27    1          
    X9       COST      40         ELEM2     1          ELEM5     1          
    X9       ELEM7     1          ELEM8     1          
    X9       ELEM16    1          ELEM19    1          
    X9       ELEM20    1          ELEM23    1          
    X9       ELEM26    1          ELEM28    1          
    X9       ELEM29    1          
    X10      COST      44         ELEM5     1          ELEM6     1          
    X10      ELEM10    1          ELEM12    1          
    X10      ELEM14    1          ELEM15    1          
    X10      ELEM18    1          ELEM19    1          
    X10      ELEM21    1          ELEM23    1          
    X10      ELEM27    1          ELEM30    1          
RHS
    RHS       ELEM1     1       
    RHS       ELEM2     1       
    RHS       ELEM3     1       
    RHS       ELEM4     1       
    RHS       ELEM5     1       
    RHS       ELEM6     1       
    RHS       ELEM7     1       
    RHS       ELEM8     1       
    RHS       ELEM9     1       
    RHS       ELEM10    1       
    RHS       ELEM11    1       
    RHS       ELEM12    1       
    RHS       ELEM13    1       
    RHS       ELEM14    1       
    RHS       ELEM15    1       
    RHS       ELEM16    1       
    RHS       ELEM17    1       
    RHS       ELEM18    1       
    RHS       ELEM19    1       
    RHS       ELEM20    1       
    RHS       ELEM21    1       
    RHS       ELEM22    1       
    RHS       ELEM23    1       
    RHS       ELEM24    1       
    RHS       ELEM25    1       
    RHS       ELEM26    1       
    RHS       ELEM27    1       
    RHS       ELEM28    1       
    RHS       ELEM29    1       
    RHS       ELEM30    1       
BOUNDS
 BV BND1      X1
 BV BND1      X2
 BV BND1      X3
 BV BND1      X4
 BV BND1      X5
 BV BND1      X6
 BV BND1      X7
 BV BND1      X8
 BV BND1      X9
 BV BND1      X10
ENDATA
